505 308 307 303 304 306 305 318 317 319 320 321 322 323 324 325 326 327 328 329 366 367 365 368 369 370 372 371 396 395 373 374 375 376 315 314 316 313 309 310 311 312 451 377 378 379 380 381 445 444 443 442 446 447 448 449 450 441 440 453 452 499 500 501 497 496 470 469 468 467 466 465 464 463 462 461 459 460 571 570 569 568 20 19 18 17 16 15 14 21 24 25 26 27 28 29 567 474 473 472 471 495 494 524 493 492 491 490 486 485 484 482 475 476 477 478 479 480 481 483 536 537 539 538 540 176 177 178 179 181 180 169 171 170 172 175 174 173 108 109 107 542 541 543 544 547 546 545 548 549 564 566 565 563 562 561 560 550 551 101 100 102 103 104 105 106 118 119 120 121 117 122 123 71 70 124 125 126 127 128 116 115 110 111 114 112 113 161 162 168 163 167 166 164 201 200 199 198 197 196 195 194 193 184 185 183 182 186 187 188 534 535 487 488 489 531 532 533 231 230 229 228 227 189 225 226 190 191 192 219 218 220 221 222 224 223 217 216 215 214 213 212 211 210 209 205 206 207 208 202 204 203 165 154 160 159 156 155 153 157 158 145 144 143 142 146 147 148 152 149 150 151 141 140 139 136 135 134 133 132 131 130 129 137 138 69 68 67 66 65 72 73 74 75 76 64 62 63 61 60 59 81 80 79 78 77 88 89 90 87 86 85 50 51 84 82 57 58 83 56 55 53 52 54 49 48 47 46 45 555 91 92 93 94 95 96 97 98 99 552 553 554 556 557 559 558 34 33 35 40 41 44 43 42 39 38 37 36 32 30 31 22 23 12 13 11 10 9 8 7 6 5 572 573 0 4 3 2 1 458 457 456 455 454 439 438 437 436 435 434 433 432 430 431 429 428 427 426 423 421 420 422 424 425 382 386 383 384 385 387 388 389 390 392 391 393 394 397 398 399 406 405 407 408 409 404 400 403 402 401 360 359 358 357 354 353 355 356 412 411 410 418 419 417 416 415 414 413 352 351 350 349 348 347 362 361 363 364 346 345 344 343 342 341 340 330 331 332 333 339 338 337 336 335 334 283 284 285 286 287 280 281 282 279 278 277 276 288 289 290 291 292 275 274 273 272 271 267 268 269 270 293 294 295 296 297 298 299 265 266 264 263 262 261 260 259 258 257 256 255 253 254 252 251 250 249 248 247 246 245 244 243 242 241 300 301 302 508 507 506 516 515 514 513 512 511 510 509 237 240 239 238 236 235 234 232 233 530 529 528 527 526 525 523 521 522 517 520 518 519 498 502 503 504